experiment/data/lkh-res/Vrp-Set-X-n129/Vrp-Set-X-n129-lkh/0.lkh1.vrp
NAME : 0
COMMENT : CVRP Instance
TYPE : CVRP
DIMENSION : 129
EDGE_WEIGHT_TYPE : EUC_2D
CAPACITY : 39
NODE_COORD_SECTION
1	0	0
2	5100	57000
3	69100	98500
4	6600	11900
5	50200	41500
6	43400	28900
7	42700	58400
8	34200	57600
9	79000	8700
10	31200	47500
11	90800	53100
12	84000	56600
13	86300	23200
14	28400	83300
15	51500	17500
16	900	24300
17	76800	20900
18	77700	58200
19	8400	50800
20	38000	52300
21	25500	26700
22	54400	96100
23	40800	66100
24	5700	58800
25	27800	4400
26	16800	72200
27	72600	40600
28	22300	38500
29	49500	7000
30	56000	63200
31	23500	65500
32	64300	12700
33	76500	26700
34	45900	97600
35	58500	96200
36	15400	79600
37	65000	44400
38	93100	5200
39	37700	1900
40	17800	63300
41	91700	80300
42	87100	67700
43	66700	16400
44	20800	65100
45	3500	43700
46	50300	68000
47	46200	87000
48	32200	12300
49	67700	82900
50	87800	40700
51	22300	25100
52	67100	9400
53	21800	35100
54	37500	22000
55	36700	56700
56	98600	86900
57	23600	76900
58	20200	99800
59	76100	71200
60	7500	52000
61	1400	73700
62	89500	63200
63	22400	72500
64	32800	38700
65	3600	30000
66	81700	53100
67	3100	28300
68	20900	57400
69	49000	39500
70	65900	12100
71	41000	20700
72	76100	45000
73	76800	34800
74	87300	34900
75	43900	17900
76	5100	26900
77	88600	55800
78	15100	75200
79	20800	18600
80	89700	54700
81	46900	39600
82	60700	43700
83	20200	43300
84	64200	10000
85	18000	70300
86	87300	59500
87	10300	18400
88	46600	41600
89	12400	31100
90	7100	32100
91	800	35700
92	5100	20000
93	89900	47100
94	6700	23600
95	48200	43200
96	99100	38800
97	93300	30900
98	64900	13100
99	49700	40400
100	62600	19500
101	80700	37500
102	77600	62600
103	62400	27500
104	5500	28800
105	87700	51500
106	82100	53300
107	45600	31700
108	62500	41000
109	78300	40300
110	66200	9700
111	73300	53300
112	49900	47000
113	76600	34000
114	20600	38500
115	82200	28500
116	57100	30400
117	93400	46100
118	53300	24200
119	44200	2400
120	30300	24900
121	67500	9200
122	46700	43200
123	57500	33800
124	38500	23900
125	27200	51200
126	56700	12400
127	73800	44700
128	37900	16500
129	61000	40800
DEMAND_SECTION
1	0
2	9
3	8
4	8
5	4
6	4
7	3
8	6
9	10
10	8
11	8
12	3
13	2
14	8
15	4
16	9
17	4
18	6
19	5
20	1
21	2
22	2
23	4
24	2
25	3
26	6
27	7
28	8
29	9
30	8
31	7
32	9
33	5
34	4
35	8
36	2
37	8
38	8
39	9
40	10
41	9
42	5
43	1
44	3
45	10
46	10
47	2
48	10
49	4
50	6
51	7
52	3
53	7
54	3
55	3
56	6
57	5
58	4
59	1
60	6
61	10
62	3
63	5
64	3
65	1
66	9
67	2
68	8
69	9
70	2
71	4
72	7
73	10
74	7
75	1
76	7
77	1
78	5
79	4
80	1
81	5
82	10
83	10
84	2
85	4
86	2
87	2
88	2
89	6
90	7
91	6
92	8
93	3
94	1
95	2
96	1
97	9
98	1
99	6
100	5
101	6
102	1
103	1
104	3
105	7
106	2
107	4
108	4
109	4
110	6
111	2
112	9
113	9
114	5
115	1
116	9
117	1
118	10
119	4
120	4
121	10
122	1
123	6
124	2
125	9
126	7
127	1
128	7
129	3
DEPOT_SECTION
1
-1
EOF
