experiment/data/lkh-res/Vrp-Set-X-n129/Vrp-Set-X-n129-lkh/0.lkh1.tour
NAME : 0.2904277.tour
COMMENT : Length = 2904277
COMMENT : Found by LKH-3 [Keld Helsgaun] Tue Apr  9 03:18:32 2024
TYPE : TOUR
DIMENSION : 146
TOUR_SECTION
1
4
146
103
113
73
101
109
27
124
138
6
107
82
37
108
129
123
145
10
55
47
34
22
35
3
49
142
64
122
95
112
5
99
69
81
135
66
106
12
77
80
11
105
72
127
134
79
51
21
120
54
128
48
143
71
116
118
15
39
25
136
61
78
36
58
14
57
63
139
65
19
60
24
2
45
91
144
125
8
23
46
30
88
133
84
110
52
121
9
38
132
94
40
26
85
44
31
68
131
16
67
90
104
76
92
130
87
53
28
114
83
89
141
17
13
97
96
117
93
50
74
115
33
137
111
18
102
86
62
42
56
41
59
7
20
140
75
100
43
70
98
32
126
29
119
-1
EOF
